Version identifier: 20.1.0.0 | 2020-11-10 | 9bedb6d68
Tried aggregator 2 times.
MIP Presolve eliminated 1243 rows and 665 columns.
MIP Presolve modified 3178 coefficients.
Aggregator did 142 substitutions.
Reduced MIP has 1824 rows, 1408 columns, and 5994 nonzeros.
Reduced MIP has 253 binaries, 1155 generals, 0 SOSs, and 0 indicators.
Presolve time = 0.02 sec. (7.14 ticks)
Probing fixed 40 vars, tightened 456 bounds.
Probing time = 0.00 sec. (1.39 ticks)
Tried aggregator 1 time.
Detecting symmetries...
MIP Presolve eliminated 780 rows and 40 columns.
MIP Presolve modified 103 coefficients.
Reduced MIP has 1044 rows, 1368 columns, and 3414 nonzeros.
Reduced MIP has 353 binaries, 1015 generals, 0 SOSs, and 0 indicators.
Presolve time = 0.01 sec. (3.76 ticks)
Probing time = 0.00 sec. (0.29 ticks)
Clique table members: 5.
MIP emphasis: balance optimality and feasibility.
MIP search method: dynamic search.
Parallel mode: deterministic, using up to 24 threads.
Root relaxation solution time = 0.01 sec. (2.74 ticks)

        Nodes                                         Cuts/
   Node  Left     Objective  IInf  Best Integer    Best Bound    ItCnt     Gap

      0     0        0.0000    47                      0.0000      313         
      0     0        0.0000    78                   Cuts: 108      443         
*     0+    0                           27.0000        0.0000           100.00%
      0     0        0.0000    32       27.0000      Cuts: 66      802  100.00%
      0     0        0.3600   311       27.0000      Cuts: 73      957   98.67%
      0     0        0.4407   420       27.0000     Cuts: 132     1210   98.37%
*     0+    0                           13.0000        0.4407            96.61%
      0     0        cutoff             13.0000       13.0000     1307    0.00%
Elapsed time = 1.07 sec. (103.30 ticks, tree = 0.01 MB, solutions = 2)

Implied bound cuts applied:  52
Flow cuts applied:  13
Mixed integer rounding cuts applied:  26
Zero-half cuts applied:  153
Lift and project cuts applied:  3
Gomory fractional cuts applied:  7

Root node processing (before b&c):
  Real time             =    1.07 sec. (103.40 ticks)
Parallel b&c, 24 threads:
  Real time             =    0.00 sec. (0.00 ticks)
  Sync time (average)   =    0.00 sec.
  Wait time (average)   =    0.00 sec.
                          ------------
Total (root+branch&cut) =    1.07 sec. (103.40 ticks)

Solution status = Optimal
Solution LB = 13
Solution UB = 13
Runtime = 1.07074 seconds
	Command being timed: "/home/min/git_repos/CS598MEBProject/CNT-ILP/build/cnt -s 2 ./output/k8_n20/simC_c1_k8_n20_u2_s3_del02.input-left.cnp"
	User time (seconds): 15.34
	System time (seconds): 0.07
	Percent of CPU this job got: 1375%
	Elapsed (wall clock) time (h:mm:ss or m:ss): 0:01.12
	Average shared text size (kbytes): 0
	Average unshared data size (kbytes): 0
	Average stack size (kbytes): 0
	Average total size (kbytes): 0
	Maximum resident set size (kbytes): 98980
	Average resident set size (kbytes): 0
	Major (requiring I/O) page faults: 0
	Minor (reclaiming a frame) page faults: 22034
	Voluntary context switches: 4540
	Involuntary context switches: 2126
	Swaps: 0
	File system inputs: 0
	File system outputs: 16
	Socket messages sent: 0
	Socket messages received: 0
	Signals delivered: 0
	Page size (bytes): 4096
	Exit status: 0
